DIMACS_lns/graph-1000-826.col
p edge 1000 1842
e 2 73
e 2 432
e 2 784
e 3 266
e 3 744
e 3 902
e 4 152
e 4 398
e 4 716
e 4 619
e 5 407
e 5 85
e 5 317
e 5 799
e 5 289
e 5 877
e 7 416
e 7 107
e 7 406
e 9 547
e 9 903
e 9 245
e 9 687
e 10 903
e 10 278
e 10 255
e 10 919
e 10 786
e 10 189
e 11 935
e 11 28
e 11 295
e 11 460
e 12 111
e 12 208
e 12 470
e 12 663
e 13 747
e 13 160
e 13 870
e 13 107
e 13 820
e 13 79
e 14 61
e 14 175
e 14 156
e 15 348
e 15 120
e 15 557
e 15 585
e 16 788
e 16 134
e 16 553
e 16 868
e 17 436
e 17 731
e 17 186
e 17 381
e 17 294
e 18 515
e 18 643
e 18 254
e 18 372
e 19 729
e 19 493
e 19 167
e 21 150
e 21 355
e 21 605
e 21 805
e 22 804
e 22 393
e 22 76
e 22 930
e 22 152
e 23 642
e 23 526
e 23 741
e 23 534
e 23 782
e 23 949
e 23 589
e 23 121
e 24 438
e 24 419
e 24 584
e 24 460
e 24 861
e 25 537
e 25 319
e 25 293
e 25 789
e 27 149
e 27 557
e 27 404
e 27 416
e 27 422
e 27 125
e 28 869
e 28 382
e 28 857
e 28 244
e 28 417
e 28 592
e 29 738
e 29 880
e 29 938
e 29 971
e 29 585
e 29 153
e 29 267
e 29 729
e 30 478
e 30 456
e 30 739
e 31 640
e 31 233
e 31 420
e 31 585
e 31 829
e 31 297
e 32 298
e 32 416
e 32 258
e 32 857
e 32 249
e 34 219
e 34 934
e 34 835
e 34 458
e 35 578
e 35 235
e 35 295
e 36 38
e 36 644
e 36 530
e 36 808
e 36 900
e 37 689
e 37 427
e 37 547
e 37 999
e 37 642
e 37 584
e 37 352
e 37 862
e 37 783
e 37 290
e 38 703
e 38 898
e 38 941
e 39 588
e 39 669
e 39 40
e 40 420
e 40 345
e 40 206
e 41 107
e 41 76
e 41 112
e 42 248
e 42 840
e 42 591
e 42 719
e 42 502
e 42 530
e 42 596
e 42 167
e 42 413
e 43 458
e 43 605
e 43 891
e 43 170
e 43 397
e 43 563
e 44 428
e 44 863
e 44 382
e 44 297
e 45 340
e 45 993
e 45 785
e 46 318
e 46 801
e 46 359
e 46 409
e 46 982
e 46 77
e 48 155
e 48 474
e 48 480
e 48 790
e 48 591
e 48 550
e 48 921
e 48 695
e 50 793
e 50 733
e 50 66
e 53 749
e 53 611
e 53 482
e 53 784
e 53 134
e 53 967
e 54 653
e 54 700
e 54 100
e 55 785
e 55 181
e 55 782
e 55 880
e 55 541
e 55 624
e 55 667
e 56 642
e 56 654
e 56 109
e 56 555
e 56 789
e 56 137
e 56 99
e 56 696
e 57 443
e 57 941
e 57 98
e 58 932
e 58 465
e 58 405
e 58 247
e 58 934
e 58 345
e 58 158
e 59 683
e 59 330
e 59 366
e 59 561
e 59 85
e 60 856
e 60 181
e 60 916
e 60 291
e 61 193
e 61 883
e 63 601
e 63 117
e 63 512
e 63 151
e 63 529
e 66 320
e 66 583
e 66 176
e 66 675
e 66 302
e 67 315
e 67 622
e 67 831
e 68 526
e 68 547
e 68 210
e 68 624
e 68 812
e 68 558
e 69 928
e 69 137
e 69 576
e 69 330
e 69 454
e 70 588
e 70 885
e 70 832
e 70 563
e 71 212
e 71 727
e 71 458
e 73 985
e 73 975
e 74 690
e 74 293
e 74 686
e 74 211
e 74 152
e 74 616
e 76 254
e 76 522
e 77 211
e 77 795
e 78 411
e 78 469
e 78 723
e 78 407
e 79 325
e 79 466
e 79 160
e 79 733
e 79 1000
e 79 573
e 79 431
e 79 554
e 79 764
e 85 242
e 85 634
e 85 267
e 85 131
e 85 287
e 88 446
e 88 796
e 88 364
e 88 295
e 88 868
e 89 180
e 89 249
e 89 267
e 89 230
e 89 645
e 89 876
e 90 797
e 90 128
e 90 871
e 90 131
e 92 197
e 92 155
e 92 165
e 92 487
e 94 232
e 94 350
e 94 887
e 94 614
e 97 609
e 97 642
e 97 357
e 97 560
e 97 578
e 98 676
e 98 778
e 98 392
e 98 848
e 99 797
e 99 561
e 99 293
e 100 564
e 100 473
e 100 348
e 102 788
e 102 529
e 102 126
e 103 926
e 103 609
e 103 225
e 103 660
e 103 193
e 106 417
e 106 219
e 106 165
e 106 305
e 107 268
e 108 324
e 108 141
e 108 576
e 108 298
e 108 833
e 108 999
e 109 928
e 109 515
e 110 989
e 110 258
e 110 815
e 110 396
e 110 343
e 111 747
e 111 141
e 112 617
e 112 699
e 112 898
e 113 358
e 113 360
e 113 942
e 114 807
e 114 971
e 114 115
e 115 706
e 115 288
e 115 285
e 117 845
e 117 233
e 117 451
e 117 650
e 117 197
e 117 761
e 117 151
e 118 910
e 118 311
e 118 454
e 120 839
e 120 197
e 120 723
e 121 550
e 121 809
e 121 311
e 121 760
e 121 318
e 121 518
e 122 500
e 122 230
e 122 243
e 123 523
e 123 150
e 123 689
e 123 499
e 123 846
e 123 191
e 125 199
e 125 903
e 126 777
e 126 639
e 127 241
e 127 848
e 127 733
e 128 702
e 128 604
e 128 641
e 128 846
e 128 378
e 129 703
e 129 581
e 129 755
e 130 808
e 130 396
e 130 733
e 130 314
e 130 493
e 130 706
e 131 143
e 131 789
e 131 783
e 131 834
e 132 461
e 132 868
e 132 875
e 132 932
e 132 291
e 134 581
e 137 650
e 138 554
e 138 703
e 138 199
e 138 495
e 138 175
e 139 594
e 139 613
e 139 524
e 139 571
e 140 895
e 140 299
e 140 240
e 140 679
e 140 989
e 141 825
e 141 812
e 141 330
e 141 253
e 141 493
e 141 385
e 142 659
e 142 190
e 142 422
e 142 938
e 142 341
e 143 832
e 143 813
e 143 410
e 143 325
e 143 660
e 143 371
e 144 998
e 144 426
e 144 573
e 144 317
e 145 408
e 145 996
e 145 878
e 147 652
e 147 191
e 147 469
e 148 616
e 148 430
e 148 254
e 149 474
e 149 244
e 149 955
e 149 235
e 149 922
e 149 833
e 150 805
e 150 542
e 150 419
e 151 732
e 151 423
e 151 538
e 152 240
e 152 869
e 152 391
e 152 419
e 153 892
e 153 650
e 153 341
e 153 850
e 153 691
e 155 383
e 156 566
e 156 371
e 157 817
e 157 749
e 157 248
e 157 351
e 158 525
e 158 977
e 158 785
e 158 864
e 158 994
e 160 568
e 161 790
e 161 955
e 161 404
e 161 258
e 161 783
e 165 566
e 165 361
e 165 768
e 165 287
e 165 547
e 165 485
e 166 394
e 166 786
e 166 663
e 167 245
e 167 398
e 167 797
e 167 878
e 167 348
e 168 611
e 168 174
e 168 743
e 168 815
e 169 568
e 169 179
e 169 952
e 169 241
e 170 266
e 170 666
e 170 805
e 170 412
e 170 790
e 170 518
e 170 522
e 172 190
e 172 657
e 172 854
e 172 372
e 173 921
e 173 782
e 173 951
e 174 348
e 174 828
e 174 898
e 174 647
e 174 895
e 174 341
e 174 904
e 175 797
e 176 289
e 176 179
e 176 390
e 176 916
e 177 494
e 177 390
e 177 320
e 177 307
e 177 430
e 177 187
e 178 737
e 178 488
e 178 207
e 178 856
e 178 305
e 179 944
e 179 374
e 180 453
e 180 830
e 181 782
e 181 256
e 184 841
e 184 253
e 184 750
e 184 244
e 185 510
e 185 359
e 185 924
e 186 938
e 186 671
e 186 319
e 186 592
e 187 883
e 187 199
e 187 456
e 188 805
e 188 762
e 188 273
e 189 648
e 189 958
e 189 548
e 189 405
e 189 911
e 190 494
e 190 770
e 190 848
e 191 663
e 191 774
e 191 496
e 191 944
e 192 786
e 192 796
e 192 266
e 192 293
e 192 247
e 192 599
e 192 793
e 193 358
e 195 288
e 195 548
e 195 401
e 195 231
e 196 594
e 196 826
e 196 266
e 196 739
e 196 268
e 197 784
e 197 568
e 197 351
e 197 793
e 197 309
e 198 880
e 198 492
e 198 900
e 198 693
e 199 695
e 199 971
e 199 703
e 201 455
e 201 949
e 201 819
e 201 835
e 203 489
e 203 499
e 203 827
e 203 619
e 204 926
e 204 998
e 204 625
e 205 963
e 205 253
e 205 288
e 205 231
e 205 989
e 205 668
e 206 331
e 206 881
e 207 929
e 207 335
e 207 217
e 208 654
e 208 429
e 208 539
e 208 261
e 208 971
e 208 426
e 209 492
e 209 507
e 209 942
e 210 810
e 210 941
e 210 317
e 210 632
e 210 613
e 211 825
e 212 583
e 212 638
e 216 597
e 216 553
e 216 606
e 216 959
e 216 930
e 216 369
e 216 305
e 217 405
e 217 834
e 217 492
e 217 407
e 218 426
e 218 659
e 218 345
e 219 337
e 219 738
e 219 821
e 220 869
e 220 981
e 220 729
e 222 337
e 222 653
e 222 669
e 223 428
e 223 409
e 223 295
e 224 931
e 224 838
e 224 420
e 225 576
e 225 788
e 225 866
e 225 290
e 225 512
e 225 962
e 225 653
e 228 254
e 228 879
e 228 572
e 230 252
e 231 810
e 231 314
e 231 381
e 231 549
e 231 738
e 231 923
e 231 278
e 231 742
e 231 398
e 232 343
e 232 696
e 233 919
e 233 703
e 233 820
e 235 837
e 235 327
e 235 349
e 238 369
e 238 715
e 238 887
e 240 694
e 240 334
e 240 932
e 241 659
e 241 877
e 241 517
e 242 445
e 242 922
e 242 432
e 242 907
e 242 732
e 242 966
e 243 734
e 243 786
e 243 856
e 244 455
e 245 738
e 245 349
e 245 587
e 245 957
e 246 829
e 246 250
e 246 743
e 247 324
e 247 673
e 247 969
e 247 882
e 247 796
e 247 996
e 247 526
e 247 308
e 248 858
e 248 687
e 248 930
e 249 841
e 249 281
e 249 853
e 249 367
e 250 374
e 250 613
e 251 369
e 251 816
e 251 749
e 251 916
e 252 961
e 252 519
e 252 286
e 252 492
e 253 928
e 253 551
e 253 310
e 254 528
e 254 298
e 254 994
e 255 435
e 255 817
e 256 504
e 256 755
e 257 789
e 257 522
e 257 736
e 257 833
e 258 436
e 258 889
e 258 715
e 258 860
e 258 1000
e 259 512
e 259 869
e 259 291
e 259 455
e 259 299
e 259 385
e 261 648
e 261 684
e 261 293
e 261 343
e 261 771
e 261 527
e 261 675
e 262 403
e 262 545
e 262 591
e 262 853
e 266 373
e 266 948
e 266 421
e 266 588
e 267 659
e 268 985
e 268 649
e 269 600
e 269 638
e 269 590
e 269 533
e 270 368
e 270 495
e 270 337
e 270 555
e 270 578
e 271 478
e 271 576
e 271 398
e 271 764
e 272 989
e 272 297
e 272 311
e 273 961
e 273 730
e 273 315
e 273 377
e 274 938
e 274 811
e 274 615
e 274 438
e 276 958
e 276 596
e 276 700
e 278 483
e 278 686
e 278 906
e 278 925
e 278 753
e 279 564
e 279 391
e 279 481
e 281 952
e 281 421
e 281 807
e 281 556
e 281 799
e 284 311
e 284 703
e 284 736
e 285 566
e 285 347
e 285 606
e 285 319
e 286 969
e 286 852
e 287 978
e 287 428
e 288 516
e 288 757
e 288 414
e 289 401
e 289 408
e 289 805
e 289 318
e 289 435
e 290 690
e 290 942
e 290 799
e 291 803
e 291 820
e 291 828
e 291 341
e 291 824
e 291 875
e 292 308
e 292 693
e 292 746
e 293 844
e 293 346
e 293 902
e 293 654
e 293 759
e 294 367
e 294 585
e 294 996
e 295 699
e 295 669
e 296 456
e 296 819
e 296 827
e 298 924
e 298 844
e 299 428
e 299 505
e 299 693
e 302 916
e 302 977
e 302 489
e 305 410
e 305 806
e 307 567
e 307 841
e 307 506
e 308 496
e 308 699
e 308 372
e 309 343
e 309 917
e 309 432
e 309 496
e 309 926
e 310 956
e 310 730
e 310 474
e 311 831
e 311 553
e 314 970
e 315 951
e 315 985
e 315 837
e 316 455
e 316 518
e 316 542
e 316 835
e 316 340
e 316 354
e 316 596
e 317 592
e 317 450
e 317 583
e 318 774
e 320 431
e 320 587
e 320 527
e 320 553
e 321 434
e 321 510
e 321 666
e 321 744
e 321 605
e 323 443
e 323 882
e 323 734
e 324 873
e 324 667
e 324 684
e 325 477
e 325 546
e 325 846
e 326 340
e 326 408
e 326 761
e 326 566
e 327 519
e 327 527
e 328 447
e 328 923
e 328 869
e 328 379
e 328 647
e 329 415
e 329 672
e 329 435
e 329 880
e 330 727
e 330 648
e 330 563
e 331 351
e 331 398
e 331 473
e 332 649
e 332 517
e 332 430
e 334 879
e 334 336
e 334 988
e 335 880
e 335 735
e 336 570
e 336 478
e 337 502
e 337 620
e 337 638
e 337 497
e 339 641
e 339 375
e 339 631
e 339 436
e 339 981
e 340 930
e 340 730
e 340 748
e 341 408
e 341 926
e 341 482
e 341 988
e 341 481
e 341 485
e 341 358
e 343 559
e 343 955
e 346 753
e 346 799
e 346 737
e 346 866
e 347 672
e 347 959
e 347 935
e 347 957
e 347 911
e 347 596
e 348 636
e 348 527
e 348 489
e 349 699
e 349 547
e 349 451
e 349 913
e 349 915
e 350 788
e 350 924
e 350 520
e 350 999
e 350 812
e 350 680
e 351 573
e 351 998
e 351 898
e 351 571
e 352 879
e 352 465
e 353 910
e 353 494
e 353 499
e 353 975
e 354 558
e 354 852
e 354 781
e 354 570
e 354 811
e 355 519
e 355 833
e 355 592
e 355 735
e 357 731
e 357 460
e 358 696
e 359 445
e 359 469
e 359 768
e 359 878
e 359 989
e 360 697
e 360 716
e 360 827
e 360 683
e 360 721
e 360 821
e 360 401
e 361 587
e 361 389
e 361 750
e 361 868
e 361 625
e 362 703
e 362 433
e 362 579
e 362 543
e 363 827
e 363 652
e 363 487
e 363 962
e 364 704
e 364 512
e 364 540
e 366 730
e 366 499
e 367 868
e 367 550
e 367 692
e 367 942
e 368 767
e 368 544
e 368 941
e 368 571
e 368 477
e 369 556
e 369 650
e 369 854
e 371 994
e 371 878
e 373 706
e 373 647
e 373 755
e 374 588
e 375 925
e 375 830
e 375 379
e 377 542
e 377 885
e 377 966
e 377 815
e 378 470
e 378 434
e 379 616
e 379 949
e 381 821
e 382 910
e 382 988
e 383 583
e 383 541
e 385 404
e 387 981
e 387 812
e 387 502
e 387 866
e 388 478
e 388 888
e 388 714
e 388 931
e 389 642
e 389 956
e 389 572
e 389 614
e 389 875
e 390 670
e 390 410
e 390 856
e 390 699
e 390 822
e 390 456
e 391 760
e 391 395
e 392 887
e 392 480
e 393 891
e 393 866
e 393 406
e 394 705
e 394 450
e 394 883
e 394 879
e 395 563
e 395 716
e 395 534
e 395 832
e 395 687
e 395 411
e 395 917
e 396 539
e 397 984
e 397 700
e 398 567
e 398 622
e 398 756
e 398 568
e 398 506
e 401 831
e 401 812
e 401 519
e 401 691
e 403 858
e 403 929
e 404 590
e 404 540
e 404 615
e 405 520
e 405 666
e 405 700
e 406 639
e 406 493
e 407 749
e 407 784
e 407 970
e 408 622
e 409 809
e 409 767
e 409 876
e 410 412
e 411 723
e 411 567
e 411 951
e 411 470
e 411 480
e 412 925
e 412 530
e 412 781
e 412 580
e 413 745
e 413 950
e 414 426
e 414 537
e 414 636
e 414 544
e 414 935
e 415 605
e 415 620
e 416 747
e 416 754
e 416 515
e 416 564
e 416 917
e 417 935
e 417 898
e 417 833
e 417 781
e 420 474
e 420 812
e 420 538
e 421 983
e 421 838
e 422 640
e 423 666
e 423 516
e 424 595
e 424 810
e 424 844
e 424 926
e 424 935
e 424 803
e 424 495
e 426 571
e 426 923
e 427 671
e 427 953
e 427 820
e 427 648
e 428 665
e 428 761
e 429 801
e 429 799
e 430 944
e 430 796
e 431 452
e 431 837
e 432 831
e 433 971
e 433 840
e 434 492
e 434 879
e 435 798
e 436 747
e 436 917
e 436 652
e 438 477
e 438 494
e 438 988
e 443 801
e 443 672
e 445 811
e 445 595
e 445 672
e 446 521
e 446 565
e 446 599
e 446 702
e 447 950
e 447 743
e 447 529
e 448 853
e 448 788
e 448 516
e 450 785
e 450 519
e 451 585
e 451 519
e 451 580
e 451 914
e 452 733
e 452 583
e 452 759
e 452 500
e 452 454
e 453 947
e 453 606
e 453 957
e 454 904
e 454 468
e 454 703
e 454 478
e 455 830
e 455 497
e 455 533
e 455 914
e 455 650
e 456 702
e 456 961
e 456 519
e 456 736
e 458 886
e 458 864
e 458 545
e 458 529
e 458 807
e 458 497
e 460 947
e 461 834
e 461 597
e 461 875
e 461 936
e 461 600
e 462 673
e 462 715
e 462 866
e 462 472
e 465 650
e 466 483
e 466 830
e 468 837
e 468 969
e 469 472
e 469 718
e 469 940
e 470 700
e 472 632
e 472 888
e 473 929
e 474 714
e 474 832
e 478 994
e 480 729
e 481 838
e 481 708
e 481 914
e 482 948
e 482 934
e 482 826
e 482 763
e 483 502
e 483 604
e 483 648
e 485 519
e 485 546
e 485 972
e 485 572
e 486 857
e 486 625
e 486 704
e 486 647
e 487 708
e 487 692
e 487 983
e 487 523
e 488 504
e 488 963
e 488 681
e 489 904
e 492 589
e 493 527
e 493 936
e 493 551
e 493 761
e 494 523
e 495 770
e 495 599
e 496 538
e 498 866
e 498 744
e 498 600
e 498 832
e 499 860
e 500 754
e 500 922
e 502 827
e 504 609
e 505 596
e 505 570
e 506 703
e 506 654
e 506 861
e 506 601
e 507 810
e 507 714
e 510 963
e 511 813
e 511 803
e 511 950
e 511 914
e 512 760
e 512 782
e 516 807
e 516 570
e 516 798
e 517 783
e 518 551
e 518 747
e 520 680
e 521 564
e 521 685
e 522 858
e 522 860
e 523 962
e 523 829
e 524 831
e 524 768
e 525 762
e 525 754
e 525 580
e 526 929
e 526 699
e 527 700
e 527 692
e 528 753
e 528 709
e 529 793
e 530 759
e 533 872
e 533 652
e 533 696
e 533 634
e 533 691
e 533 838
e 534 543
e 537 749
e 537 644
e 538 561
e 539 921
e 540 982
e 541 857
e 542 871
e 542 958
e 543 786
e 543 549
e 544 935
e 545 582
e 545 973
e 546 694
e 546 938
e 547 570
e 547 951
e 547 941
e 548 831
e 549 820
e 549 881
e 549 755
e 550 924
e 550 878
e 550 935
e 551 781
e 551 748
e 551 898
e 553 875
e 553 742
e 554 762
e 554 952
e 554 604
e 555 657
e 555 951
e 555 894
e 555 891
e 555 683
e 556 857
e 556 787
e 556 984
e 556 599
e 556 930
e 557 750
e 557 881
e 558 643
e 559 754
e 559 915
e 560 587
e 560 709
e 563 679
e 563 663
e 563 903
e 564 597
e 564 931
e 565 924
e 565 746
e 565 595
e 565 950
e 565 895
e 566 882
e 567 930
e 567 590
e 567 790
e 568 1000
e 568 746
e 568 663
e 570 936
e 570 808
e 570 876
e 571 793
e 572 807
e 572 889
e 572 994
e 573 604
e 575 676
e 575 966
e 575 876
e 576 641
e 578 959
e 578 708
e 578 741
e 579 666
e 579 681
e 580 703
e 580 714
e 581 730
e 581 872
e 582 628
e 582 948
e 582 667
e 583 738
e 583 668
e 583 742
e 584 996
e 584 831
e 585 870
e 585 600
e 587 604
e 587 679
e 587 767
e 587 860
e 588 797
e 588 903
e 589 771
e 590 894
e 590 913
e 591 647
e 591 807
e 591 898
e 592 945
e 592 723
e 594 728
e 597 797
e 599 786
e 599 705
e 600 748
e 600 813
e 601 966
e 604 858
e 604 891
e 604 854
e 605 926
e 605 654
e 606 955
e 611 883
e 611 873
e 613 862
e 613 883
e 614 873
e 614 926
e 614 729
e 614 817
e 615 777
e 615 709
e 616 834
e 616 924
e 616 756
e 617 760
e 617 832
e 617 869
e 617 886
e 617 716
e 619 683
e 619 659
e 619 788
e 619 704
e 619 690
e 620 922
e 620 690
e 620 975
e 620 925
e 622 718
e 624 826
e 624 845
e 628 852
e 628 880
e 631 672
e 631 810
e 631 718
e 632 693
e 634 881
e 636 938
e 636 733
e 639 668
e 640 907
e 640 967
e 640 781
e 643 963
e 644 984
e 645 745
e 645 764
e 645 877
e 648 958
e 648 737
e 649 953
e 649 892
e 650 902
e 653 835
e 653 831
e 653 906
e 653 817
e 654 744
e 654 930
e 657 828
e 657 661
e 657 962
e 660 941
e 661 989
e 661 872
e 663 819
e 663 705
e 665 917
e 665 894
e 665 735
e 666 864
e 666 996
e 666 973
e 668 961
e 668 996
e 669 869
e 669 957
e 670 888
e 670 949
e 671 761
e 673 913
e 673 973
e 675 864
e 676 815
e 679 816
e 679 898
e 680 850
e 681 870
e 683 985
e 683 829
e 684 856
e 684 861
e 684 796
e 684 704
e 684 799
e 684 894
e 685 887
e 685 913
e 685 973
e 685 900
e 686 697
e 686 985
e 687 825
e 687 834
e 689 714
e 690 778
e 691 742
e 691 916
e 693 741
e 694 809
e 695 926
e 695 975
e 695 738
e 696 754
e 696 730
e 697 969
e 697 729
e 697 892
e 699 708
e 700 887
e 700 926
e 704 806
e 709 755
e 714 898
e 714 812
e 716 993
e 718 882
e 718 813
e 719 863
e 719 756
e 721 754
e 721 812
e 723 902
e 727 840
e 727 812
e 727 788
e 728 931
e 728 982
e 728 864
e 731 816
e 732 863
e 732 745
e 732 787
e 733 907
e 733 795
e 734 889
e 735 967
e 735 881
e 736 828
e 737 755
e 738 951
e 738 894
e 739 796
e 741 803
e 741 788
e 743 759
e 743 993
e 744 845
e 745 821
e 747 768
e 749 877
e 753 975
e 755 835
e 755 870
e 755 926
e 755 816
e 755 771
e 757 763
e 757 955
e 759 777
e 759 837
e 762 944
e 762 945
e 763 821
e 763 877
e 763 957
e 768 777
e 770 961
e 771 860
e 771 886
e 774 808
e 774 962
e 778 811
e 781 930
e 782 850
e 783 888
e 784 895
e 785 824
e 785 827
e 787 808
e 787 981
e 787 798
e 788 935
e 788 962
e 788 827
e 790 925
e 795 982
e 795 853
e 796 832
e 798 978
e 801 996
e 803 877
e 804 902
e 804 961
e 806 911
e 806 947
e 806 857
e 807 970
e 808 926
e 808 928
e 810 947
e 811 840
e 813 862
e 813 860
e 817 929
e 820 970
e 821 868
e 822 956
e 822 848
e 824 930
e 825 996
e 827 882
e 828 945
e 830 850
e 831 864
e 832 907
e 834 926
e 838 907
e 839 914
e 839 955
e 845 846
e 846 932
e 850 971
e 853 951
e 854 938
e 863 993
e 866 869
e 868 971
e 869 944
e 870 952
e 871 983
e 871 969
e 876 972
e 877 956
e 878 947
e 878 969
e 879 915
e 880 981
e 881 898
e 882 977
e 885 998
e 886 900
e 887 963
e 892 941
e 903 906
e 910 961
e 915 940
e 915 948
e 919 972
e 923 934
e 925 936
e 925 941
e 930 981
e 940 985
e 942 966
e 948 950
e 951 953
e 957 978
e 970 983
e 977 998
e 989 993
