txt_Ins/graph-1000-826.txt
n 1000
e 1 72
e 1 431
e 1 783
e 2 265
e 2 743
e 2 901
e 3 151
e 3 397
e 3 715
e 3 618
e 4 406
e 4 84
e 4 316
e 4 798
e 4 288
e 4 876
e 6 415
e 6 106
e 6 405
e 8 546
e 8 902
e 8 244
e 8 686
e 9 902
e 9 277
e 9 254
e 9 918
e 9 785
e 9 188
e 10 934
e 10 27
e 10 294
e 10 459
e 11 110
e 11 207
e 11 469
e 11 662
e 12 746
e 12 159
e 12 869
e 12 106
e 12 819
e 12 78
e 13 60
e 13 174
e 13 155
e 14 347
e 14 119
e 14 556
e 14 584
e 15 787
e 15 133
e 15 552
e 15 867
e 16 435
e 16 730
e 16 185
e 16 380
e 16 293
e 17 514
e 17 642
e 17 253
e 17 371
e 18 728
e 18 492
e 18 166
e 20 149
e 20 354
e 20 604
e 20 804
e 21 803
e 21 392
e 21 75
e 21 929
e 21 151
e 22 641
e 22 525
e 22 740
e 22 533
e 22 781
e 22 948
e 22 588
e 22 120
e 23 437
e 23 418
e 23 583
e 23 459
e 23 860
e 24 536
e 24 318
e 24 292
e 24 788
e 26 148
e 26 556
e 26 403
e 26 415
e 26 421
e 26 124
e 27 868
e 27 381
e 27 856
e 27 243
e 27 416
e 27 591
e 28 737
e 28 879
e 28 937
e 28 970
e 28 584
e 28 152
e 28 266
e 28 728
e 29 477
e 29 455
e 29 738
e 30 639
e 30 232
e 30 419
e 30 584
e 30 828
e 30 296
e 31 297
e 31 415
e 31 257
e 31 856
e 31 248
e 33 218
e 33 933
e 33 834
e 33 457
e 34 577
e 34 234
e 34 294
e 35 37
e 35 643
e 35 529
e 35 807
e 35 899
e 36 688
e 36 426
e 36 546
e 36 998
e 36 641
e 36 583
e 36 351
e 36 861
e 36 782
e 36 289
e 37 702
e 37 897
e 37 940
e 38 587
e 38 668
e 38 39
e 39 419
e 39 344
e 39 205
e 40 106
e 40 75
e 40 111
e 41 247
e 41 839
e 41 590
e 41 718
e 41 501
e 41 529
e 41 595
e 41 166
e 41 412
e 42 457
e 42 604
e 42 890
e 42 169
e 42 396
e 42 562
e 43 427
e 43 862
e 43 381
e 43 296
e 44 339
e 44 992
e 44 784
e 45 317
e 45 800
e 45 358
e 45 408
e 45 981
e 45 76
e 47 154
e 47 473
e 47 479
e 47 789
e 47 590
e 47 549
e 47 920
e 47 694
e 49 792
e 49 732
e 49 65
e 52 748
e 52 610
e 52 481
e 52 783
e 52 133
e 52 966
e 53 652
e 53 699
e 53 99
e 54 784
e 54 180
e 54 781
e 54 879
e 54 540
e 54 623
e 54 666
e 55 641
e 55 653
e 55 108
e 55 554
e 55 788
e 55 136
e 55 98
e 55 695
e 56 442
e 56 940
e 56 97
e 57 931
e 57 464
e 57 404
e 57 246
e 57 933
e 57 344
e 57 157
e 58 682
e 58 329
e 58 365
e 58 560
e 58 84
e 59 855
e 59 180
e 59 915
e 59 290
e 60 192
e 60 882
e 62 600
e 62 116
e 62 511
e 62 150
e 62 528
e 65 319
e 65 582
e 65 175
e 65 674
e 65 301
e 66 314
e 66 621
e 66 830
e 67 525
e 67 546
e 67 209
e 67 623
e 67 811
e 67 557
e 68 927
e 68 136
e 68 575
e 68 329
e 68 453
e 69 587
e 69 884
e 69 831
e 69 562
e 70 211
e 70 726
e 70 457
e 72 984
e 72 974
e 73 689
e 73 292
e 73 685
e 73 210
e 73 151
e 73 615
e 75 253
e 75 521
e 76 210
e 76 794
e 77 410
e 77 468
e 77 722
e 77 406
e 78 324
e 78 465
e 78 159
e 78 732
e 78 999
e 78 572
e 78 430
e 78 553
e 78 763
e 84 241
e 84 633
e 84 266
e 84 130
e 84 286
e 87 445
e 87 795
e 87 363
e 87 294
e 87 867
e 88 179
e 88 248
e 88 266
e 88 229
e 88 644
e 88 875
e 89 796
e 89 127
e 89 870
e 89 130
e 91 196
e 91 154
e 91 164
e 91 486
e 93 231
e 93 349
e 93 886
e 93 613
e 96 608
e 96 641
e 96 356
e 96 559
e 96 577
e 97 675
e 97 777
e 97 391
e 97 847
e 98 796
e 98 560
e 98 292
e 99 563
e 99 472
e 99 347
e 101 787
e 101 528
e 101 125
e 102 925
e 102 608
e 102 224
e 102 659
e 102 192
e 105 416
e 105 218
e 105 164
e 105 304
e 106 267
e 107 323
e 107 140
e 107 575
e 107 297
e 107 832
e 107 998
e 108 927
e 108 514
e 109 988
e 109 257
e 109 814
e 109 395
e 109 342
e 110 746
e 110 140
e 111 616
e 111 698
e 111 897
e 112 357
e 112 359
e 112 941
e 113 806
e 113 970
e 113 114
e 114 705
e 114 287
e 114 284
e 116 844
e 116 232
e 116 450
e 116 649
e 116 196
e 116 760
e 116 150
e 117 909
e 117 310
e 117 453
e 119 838
e 119 196
e 119 722
e 120 549
e 120 808
e 120 310
e 120 759
e 120 317
e 120 517
e 121 499
e 121 229
e 121 242
e 122 522
e 122 149
e 122 688
e 122 498
e 122 845
e 122 190
e 124 198
e 124 902
e 125 776
e 125 638
e 126 240
e 126 847
e 126 732
e 127 701
e 127 603
e 127 640
e 127 845
e 127 377
e 128 702
e 128 580
e 128 754
e 129 807
e 129 395
e 129 732
e 129 313
e 129 492
e 129 705
e 130 142
e 130 788
e 130 782
e 130 833
e 131 460
e 131 867
e 131 874
e 131 931
e 131 290
e 133 580
e 136 649
e 137 553
e 137 702
e 137 198
e 137 494
e 137 174
e 138 593
e 138 612
e 138 523
e 138 570
e 139 894
e 139 298
e 139 239
e 139 678
e 139 988
e 140 824
e 140 811
e 140 329
e 140 252
e 140 492
e 140 384
e 141 658
e 141 189
e 141 421
e 141 937
e 141 340
e 142 831
e 142 812
e 142 409
e 142 324
e 142 659
e 142 370
e 143 997
e 143 425
e 143 572
e 143 316
e 144 407
e 144 995
e 144 877
e 146 651
e 146 190
e 146 468
e 147 615
e 147 429
e 147 253
e 148 473
e 148 243
e 148 954
e 148 234
e 148 921
e 148 832
e 149 804
e 149 541
e 149 418
e 150 731
e 150 422
e 150 537
e 151 239
e 151 868
e 151 390
e 151 418
e 152 891
e 152 649
e 152 340
e 152 849
e 152 690
e 154 382
e 155 565
e 155 370
e 156 816
e 156 748
e 156 247
e 156 350
e 157 524
e 157 976
e 157 784
e 157 863
e 157 993
e 159 567
e 160 789
e 160 954
e 160 403
e 160 257
e 160 782
e 164 565
e 164 360
e 164 767
e 164 286
e 164 546
e 164 484
e 165 393
e 165 785
e 165 662
e 166 244
e 166 397
e 166 796
e 166 877
e 166 347
e 167 610
e 167 173
e 167 742
e 167 814
e 168 567
e 168 178
e 168 951
e 168 240
e 169 265
e 169 665
e 169 804
e 169 411
e 169 789
e 169 517
e 169 521
e 171 189
e 171 656
e 171 853
e 171 371
e 172 920
e 172 781
e 172 950
e 173 347
e 173 827
e 173 897
e 173 646
e 173 894
e 173 340
e 173 903
e 174 796
e 175 288
e 175 178
e 175 389
e 175 915
e 176 493
e 176 389
e 176 319
e 176 306
e 176 429
e 176 186
e 177 736
e 177 487
e 177 206
e 177 855
e 177 304
e 178 943
e 178 373
e 179 452
e 179 829
e 180 781
e 180 255
e 183 840
e 183 252
e 183 749
e 183 243
e 184 509
e 184 358
e 184 923
e 185 937
e 185 670
e 185 318
e 185 591
e 186 882
e 186 198
e 186 455
e 187 804
e 187 761
e 187 272
e 188 647
e 188 957
e 188 547
e 188 404
e 188 910
e 189 493
e 189 769
e 189 847
e 190 662
e 190 773
e 190 495
e 190 943
e 191 785
e 191 795
e 191 265
e 191 292
e 191 246
e 191 598
e 191 792
e 192 357
e 194 287
e 194 547
e 194 400
e 194 230
e 195 593
e 195 825
e 195 265
e 195 738
e 195 267
e 196 783
e 196 567
e 196 350
e 196 792
e 196 308
e 197 879
e 197 491
e 197 899
e 197 692
e 198 694
e 198 970
e 198 702
e 200 454
e 200 948
e 200 818
e 200 834
e 202 488
e 202 498
e 202 826
e 202 618
e 203 925
e 203 997
e 203 624
e 204 962
e 204 252
e 204 287
e 204 230
e 204 988
e 204 667
e 205 330
e 205 880
e 206 928
e 206 334
e 206 216
e 207 653
e 207 428
e 207 538
e 207 260
e 207 970
e 207 425
e 208 491
e 208 506
e 208 941
e 209 809
e 209 940
e 209 316
e 209 631
e 209 612
e 210 824
e 211 582
e 211 637
e 215 596
e 215 552
e 215 605
e 215 958
e 215 929
e 215 368
e 215 304
e 216 404
e 216 833
e 216 491
e 216 406
e 217 425
e 217 658
e 217 344
e 218 336
e 218 737
e 218 820
e 219 868
e 219 980
e 219 728
e 221 336
e 221 652
e 221 668
e 222 427
e 222 408
e 222 294
e 223 930
e 223 837
e 223 419
e 224 575
e 224 787
e 224 865
e 224 289
e 224 511
e 224 961
e 224 652
e 227 253
e 227 878
e 227 571
e 229 251
e 230 809
e 230 313
e 230 380
e 230 548
e 230 737
e 230 922
e 230 277
e 230 741
e 230 397
e 231 342
e 231 695
e 232 918
e 232 702
e 232 819
e 234 836
e 234 326
e 234 348
e 237 368
e 237 714
e 237 886
e 239 693
e 239 333
e 239 931
e 240 658
e 240 876
e 240 516
e 241 444
e 241 921
e 241 431
e 241 906
e 241 731
e 241 965
e 242 733
e 242 785
e 242 855
e 243 454
e 244 737
e 244 348
e 244 586
e 244 956
e 245 828
e 245 249
e 245 742
e 246 323
e 246 672
e 246 968
e 246 881
e 246 795
e 246 995
e 246 525
e 246 307
e 247 857
e 247 686
e 247 929
e 248 840
e 248 280
e 248 852
e 248 366
e 249 373
e 249 612
e 250 368
e 250 815
e 250 748
e 250 915
e 251 960
e 251 518
e 251 285
e 251 491
e 252 927
e 252 550
e 252 309
e 253 527
e 253 297
e 253 993
e 254 434
e 254 816
e 255 503
e 255 754
e 256 788
e 256 521
e 256 735
e 256 832
e 257 435
e 257 888
e 257 714
e 257 859
e 257 999
e 258 511
e 258 868
e 258 290
e 258 454
e 258 298
e 258 384
e 260 647
e 260 683
e 260 292
e 260 342
e 260 770
e 260 526
e 260 674
e 261 402
e 261 544
e 261 590
e 261 852
e 265 372
e 265 947
e 265 420
e 265 587
e 266 658
e 267 984
e 267 648
e 268 599
e 268 637
e 268 589
e 268 532
e 269 367
e 269 494
e 269 336
e 269 554
e 269 577
e 270 477
e 270 575
e 270 397
e 270 763
e 271 988
e 271 296
e 271 310
e 272 960
e 272 729
e 272 314
e 272 376
e 273 937
e 273 810
e 273 614
e 273 437
e 275 957
e 275 595
e 275 699
e 277 482
e 277 685
e 277 905
e 277 924
e 277 752
e 278 563
e 278 390
e 278 480
e 280 951
e 280 420
e 280 806
e 280 555
e 280 798
e 283 310
e 283 702
e 283 735
e 284 565
e 284 346
e 284 605
e 284 318
e 285 968
e 285 851
e 286 977
e 286 427
e 287 515
e 287 756
e 287 413
e 288 400
e 288 407
e 288 804
e 288 317
e 288 434
e 289 689
e 289 941
e 289 798
e 290 802
e 290 819
e 290 827
e 290 340
e 290 823
e 290 874
e 291 307
e 291 692
e 291 745
e 292 843
e 292 345
e 292 901
e 292 653
e 292 758
e 293 366
e 293 584
e 293 995
e 294 698
e 294 668
e 295 455
e 295 818
e 295 826
e 297 923
e 297 843
e 298 427
e 298 504
e 298 692
e 301 915
e 301 976
e 301 488
e 304 409
e 304 805
e 306 566
e 306 840
e 306 505
e 307 495
e 307 698
e 307 371
e 308 342
e 308 916
e 308 431
e 308 495
e 308 925
e 309 955
e 309 729
e 309 473
e 310 830
e 310 552
e 313 969
e 314 950
e 314 984
e 314 836
e 315 454
e 315 517
e 315 541
e 315 834
e 315 339
e 315 353
e 315 595
e 316 591
e 316 449
e 316 582
e 317 773
e 319 430
e 319 586
e 319 526
e 319 552
e 320 433
e 320 509
e 320 665
e 320 743
e 320 604
e 322 442
e 322 881
e 322 733
e 323 872
e 323 666
e 323 683
e 324 476
e 324 545
e 324 845
e 325 339
e 325 407
e 325 760
e 325 565
e 326 518
e 326 526
e 327 446
e 327 922
e 327 868
e 327 378
e 327 646
e 328 414
e 328 671
e 328 434
e 328 879
e 329 726
e 329 647
e 329 562
e 330 350
e 330 397
e 330 472
e 331 648
e 331 516
e 331 429
e 333 878
e 333 335
e 333 987
e 334 879
e 334 734
e 335 569
e 335 477
e 336 501
e 336 619
e 336 637
e 336 496
e 338 640
e 338 374
e 338 630
e 338 435
e 338 980
e 339 929
e 339 729
e 339 747
e 340 407
e 340 925
e 340 481
e 340 987
e 340 480
e 340 484
e 340 357
e 342 558
e 342 954
e 345 752
e 345 798
e 345 736
e 345 865
e 346 671
e 346 958
e 346 934
e 346 956
e 346 910
e 346 595
e 347 635
e 347 526
e 347 488
e 348 698
e 348 546
e 348 450
e 348 912
e 348 914
e 349 787
e 349 923
e 349 519
e 349 998
e 349 811
e 349 679
e 350 572
e 350 997
e 350 897
e 350 570
e 351 878
e 351 464
e 352 909
e 352 493
e 352 498
e 352 974
e 353 557
e 353 851
e 353 780
e 353 569
e 353 810
e 354 518
e 354 832
e 354 591
e 354 734
e 356 730
e 356 459
e 357 695
e 358 444
e 358 468
e 358 767
e 358 877
e 358 988
e 359 696
e 359 715
e 359 826
e 359 682
e 359 720
e 359 820
e 359 400
e 360 586
e 360 388
e 360 749
e 360 867
e 360 624
e 361 702
e 361 432
e 361 578
e 361 542
e 362 826
e 362 651
e 362 486
e 362 961
e 363 703
e 363 511
e 363 539
e 365 729
e 365 498
e 366 867
e 366 549
e 366 691
e 366 941
e 367 766
e 367 543
e 367 940
e 367 570
e 367 476
e 368 555
e 368 649
e 368 853
e 370 993
e 370 877
e 372 705
e 372 646
e 372 754
e 373 587
e 374 924
e 374 829
e 374 378
e 376 541
e 376 884
e 376 965
e 376 814
e 377 469
e 377 433
e 378 615
e 378 948
e 380 820
e 381 909
e 381 987
e 382 582
e 382 540
e 384 403
e 386 980
e 386 811
e 386 501
e 386 865
e 387 477
e 387 887
e 387 713
e 387 930
e 388 641
e 388 955
e 388 571
e 388 613
e 388 874
e 389 669
e 389 409
e 389 855
e 389 698
e 389 821
e 389 455
e 390 759
e 390 394
e 391 886
e 391 479
e 392 890
e 392 865
e 392 405
e 393 704
e 393 449
e 393 882
e 393 878
e 394 562
e 394 715
e 394 533
e 394 831
e 394 686
e 394 410
e 394 916
e 395 538
e 396 983
e 396 699
e 397 566
e 397 621
e 397 755
e 397 567
e 397 505
e 400 830
e 400 811
e 400 518
e 400 690
e 402 857
e 402 928
e 403 589
e 403 539
e 403 614
e 404 519
e 404 665
e 404 699
e 405 638
e 405 492
e 406 748
e 406 783
e 406 969
e 407 621
e 408 808
e 408 766
e 408 875
e 409 411
e 410 722
e 410 566
e 410 950
e 410 469
e 410 479
e 411 924
e 411 529
e 411 780
e 411 579
e 412 744
e 412 949
e 413 425
e 413 536
e 413 635
e 413 543
e 413 934
e 414 604
e 414 619
e 415 746
e 415 753
e 415 514
e 415 563
e 415 916
e 416 934
e 416 897
e 416 832
e 416 780
e 419 473
e 419 811
e 419 537
e 420 982
e 420 837
e 421 639
e 422 665
e 422 515
e 423 594
e 423 809
e 423 843
e 423 925
e 423 934
e 423 802
e 423 494
e 425 570
e 425 922
e 426 670
e 426 952
e 426 819
e 426 647
e 427 664
e 427 760
e 428 800
e 428 798
e 429 943
e 429 795
e 430 451
e 430 836
e 431 830
e 432 970
e 432 839
e 433 491
e 433 878
e 434 797
e 435 746
e 435 916
e 435 651
e 437 476
e 437 493
e 437 987
e 442 800
e 442 671
e 444 810
e 444 594
e 444 671
e 445 520
e 445 564
e 445 598
e 445 701
e 446 949
e 446 742
e 446 528
e 447 852
e 447 787
e 447 515
e 449 784
e 449 518
e 450 584
e 450 518
e 450 579
e 450 913
e 451 732
e 451 582
e 451 758
e 451 499
e 451 453
e 452 946
e 452 605
e 452 956
e 453 903
e 453 467
e 453 702
e 453 477
e 454 829
e 454 496
e 454 532
e 454 913
e 454 649
e 455 701
e 455 960
e 455 518
e 455 735
e 457 885
e 457 863
e 457 544
e 457 528
e 457 806
e 457 496
e 459 946
e 460 833
e 460 596
e 460 874
e 460 935
e 460 599
e 461 672
e 461 714
e 461 865
e 461 471
e 464 649
e 465 482
e 465 829
e 467 836
e 467 968
e 468 471
e 468 717
e 468 939
e 469 699
e 471 631
e 471 887
e 472 928
e 473 713
e 473 831
e 477 993
e 479 728
e 480 837
e 480 707
e 480 913
e 481 947
e 481 933
e 481 825
e 481 762
e 482 501
e 482 603
e 482 647
e 484 518
e 484 545
e 484 971
e 484 571
e 485 856
e 485 624
e 485 703
e 485 646
e 486 707
e 486 691
e 486 982
e 486 522
e 487 503
e 487 962
e 487 680
e 488 903
e 491 588
e 492 526
e 492 935
e 492 550
e 492 760
e 493 522
e 494 769
e 494 598
e 495 537
e 497 865
e 497 743
e 497 599
e 497 831
e 498 859
e 499 753
e 499 921
e 501 826
e 503 608
e 504 595
e 504 569
e 505 702
e 505 653
e 505 860
e 505 600
e 506 809
e 506 713
e 509 962
e 510 812
e 510 802
e 510 949
e 510 913
e 511 759
e 511 781
e 515 806
e 515 569
e 515 797
e 516 782
e 517 550
e 517 746
e 519 679
e 520 563
e 520 684
e 521 857
e 521 859
e 522 961
e 522 828
e 523 830
e 523 767
e 524 761
e 524 753
e 524 579
e 525 928
e 525 698
e 526 699
e 526 691
e 527 752
e 527 708
e 528 792
e 529 758
e 532 871
e 532 651
e 532 695
e 532 633
e 532 690
e 532 837
e 533 542
e 536 748
e 536 643
e 537 560
e 538 920
e 539 981
e 540 856
e 541 870
e 541 957
e 542 785
e 542 548
e 543 934
e 544 581
e 544 972
e 545 693
e 545 937
e 546 569
e 546 950
e 546 940
e 547 830
e 548 819
e 548 880
e 548 754
e 549 923
e 549 877
e 549 934
e 550 780
e 550 747
e 550 897
e 552 874
e 552 741
e 553 761
e 553 951
e 553 603
e 554 656
e 554 950
e 554 893
e 554 890
e 554 682
e 555 856
e 555 786
e 555 983
e 555 598
e 555 929
e 556 749
e 556 880
e 557 642
e 558 753
e 558 914
e 559 586
e 559 708
e 562 678
e 562 662
e 562 902
e 563 596
e 563 930
e 564 923
e 564 745
e 564 594
e 564 949
e 564 894
e 565 881
e 566 929
e 566 589
e 566 789
e 567 999
e 567 745
e 567 662
e 569 935
e 569 807
e 569 875
e 570 792
e 571 806
e 571 888
e 571 993
e 572 603
e 574 675
e 574 965
e 574 875
e 575 640
e 577 958
e 577 707
e 577 740
e 578 665
e 578 680
e 579 702
e 579 713
e 580 729
e 580 871
e 581 627
e 581 947
e 581 666
e 582 737
e 582 667
e 582 741
e 583 995
e 583 830
e 584 869
e 584 599
e 586 603
e 586 678
e 586 766
e 586 859
e 587 796
e 587 902
e 588 770
e 589 893
e 589 912
e 590 646
e 590 806
e 590 897
e 591 944
e 591 722
e 593 727
e 596 796
e 598 785
e 598 704
e 599 747
e 599 812
e 600 965
e 603 857
e 603 890
e 603 853
e 604 925
e 604 653
e 605 954
e 610 882
e 610 872
e 612 861
e 612 882
e 613 872
e 613 925
e 613 728
e 613 816
e 614 776
e 614 708
e 615 833
e 615 923
e 615 755
e 616 759
e 616 831
e 616 868
e 616 885
e 616 715
e 618 682
e 618 658
e 618 787
e 618 703
e 618 689
e 619 921
e 619 689
e 619 974
e 619 924
e 621 717
e 623 825
e 623 844
e 627 851
e 627 879
e 630 671
e 630 809
e 630 717
e 631 692
e 633 880
e 635 937
e 635 732
e 638 667
e 639 906
e 639 966
e 639 780
e 642 962
e 643 983
e 644 744
e 644 763
e 644 876
e 647 957
e 647 736
e 648 952
e 648 891
e 649 901
e 652 834
e 652 830
e 652 905
e 652 816
e 653 743
e 653 929
e 656 827
e 656 660
e 656 961
e 659 940
e 660 988
e 660 871
e 662 818
e 662 704
e 664 916
e 664 893
e 664 734
e 665 863
e 665 995
e 665 972
e 667 960
e 667 995
e 668 868
e 668 956
e 669 887
e 669 948
e 670 760
e 672 912
e 672 972
e 674 863
e 675 814
e 678 815
e 678 897
e 679 849
e 680 869
e 682 984
e 682 828
e 683 855
e 683 860
e 683 795
e 683 703
e 683 798
e 683 893
e 684 886
e 684 912
e 684 972
e 684 899
e 685 696
e 685 984
e 686 824
e 686 833
e 688 713
e 689 777
e 690 741
e 690 915
e 692 740
e 693 808
e 694 925
e 694 974
e 694 737
e 695 753
e 695 729
e 696 968
e 696 728
e 696 891
e 698 707
e 699 886
e 699 925
e 703 805
e 708 754
e 713 897
e 713 811
e 715 992
e 717 881
e 717 812
e 718 862
e 718 755
e 720 753
e 720 811
e 722 901
e 726 839
e 726 811
e 726 787
e 727 930
e 727 981
e 727 863
e 730 815
e 731 862
e 731 744
e 731 786
e 732 906
e 732 794
e 733 888
e 734 966
e 734 880
e 735 827
e 736 754
e 737 950
e 737 893
e 738 795
e 740 802
e 740 787
e 742 758
e 742 992
e 743 844
e 744 820
e 746 767
e 748 876
e 752 974
e 754 834
e 754 869
e 754 925
e 754 815
e 754 770
e 756 762
e 756 954
e 758 776
e 758 836
e 761 943
e 761 944
e 762 820
e 762 876
e 762 956
e 767 776
e 769 960
e 770 859
e 770 885
e 773 807
e 773 961
e 777 810
e 780 929
e 781 849
e 782 887
e 783 894
e 784 823
e 784 826
e 786 807
e 786 980
e 786 797
e 787 934
e 787 961
e 787 826
e 789 924
e 794 981
e 794 852
e 795 831
e 797 977
e 800 995
e 802 876
e 803 901
e 803 960
e 805 910
e 805 946
e 805 856
e 806 969
e 807 925
e 807 927
e 809 946
e 810 839
e 812 861
e 812 859
e 816 928
e 819 969
e 820 867
e 821 955
e 821 847
e 823 929
e 824 995
e 826 881
e 827 944
e 829 849
e 830 863
e 831 906
e 833 925
e 837 906
e 838 913
e 838 954
e 844 845
e 845 931
e 849 970
e 852 950
e 853 937
e 862 992
e 865 868
e 867 970
e 868 943
e 869 951
e 870 982
e 870 968
e 875 971
e 876 955
e 877 946
e 877 968
e 878 914
e 879 980
e 880 897
e 881 976
e 884 997
e 885 899
e 886 962
e 891 940
e 902 905
e 909 960
e 914 939
e 914 947
e 918 971
e 922 933
e 924 935
e 924 940
e 929 980
e 939 984
e 941 965
e 947 949
e 950 952
e 956 977
e 969 982
e 976 997
e 988 992
